158,55
160,76
142,46
160,68
122,43
75,92
128,42
28,33
23,85
159,3
92,76
31,59
93,67
25,71
194,88
131,25
29,10
139,24
65,100
152,8
100,93
75,78
130,75
91,16
145,89
95,16
41,10
191,33
80,16
118,71
61,49
142,47
113,16
85,60
134,99
163,5
138,54
70,75
168,46
191,75
52,9
103,92
154,82
188,2
17,74
69,90
27,78
62,13
108,8
90,43
